(set-logic HORN)
(declare-datatypes ((Nat_579 0)) (((Z_2048 ) (S_468 (unS_680 Nat_579)))))
(declare-fun diseqNat_579 (Nat_579 Nat_579) Bool)
(declare-fun unS_681 (Nat_579 Nat_579) Bool)
(declare-fun isZ_435 (Nat_579) Bool)
(declare-fun isS_435 (Nat_579) Bool)
(assert (forall ((x_55317 Nat_579))
	(unS_681 x_55317 (S_468 x_55317))))
(assert (isZ_435 Z_2048))
(assert (forall ((x_55319 Nat_579))
	(isS_435 (S_468 x_55319))))
(assert (forall ((x_55320 Nat_579))
	(diseqNat_579 Z_2048 (S_468 x_55320))))
(assert (forall ((x_55321 Nat_579))
	(diseqNat_579 (S_468 x_55321) Z_2048)))
(assert (forall ((x_55322 Nat_579) (x_55323 Nat_579))
	(=> (diseqNat_579 x_55322 x_55323)
	    (diseqNat_579 (S_468 x_55322) (S_468 x_55323)))))
(declare-fun add_366 (Nat_579 Nat_579 Nat_579) Bool)
(declare-fun minus_361 (Nat_579 Nat_579 Nat_579) Bool)
(declare-fun le_340 (Nat_579 Nat_579) Bool)
(declare-fun ge_340 (Nat_579 Nat_579) Bool)
(declare-fun lt_360 (Nat_579 Nat_579) Bool)
(declare-fun gt_343 (Nat_579 Nat_579) Bool)
(declare-fun mult_340 (Nat_579 Nat_579 Nat_579) Bool)
(declare-fun div_340 (Nat_579 Nat_579 Nat_579) Bool)
(declare-fun mod_342 (Nat_579 Nat_579 Nat_579) Bool)
(assert (forall ((y_2284 Nat_579))
	(add_366 y_2284 Z_2048 y_2284)))
(assert (forall ((x_55301 Nat_579) (y_2284 Nat_579) (r_413 Nat_579))
	(=> (add_366 r_413 x_55301 y_2284)
	    (add_366 (S_468 r_413) (S_468 x_55301) y_2284))))
(assert (forall ((y_2284 Nat_579))
	(minus_361 Z_2048 Z_2048 y_2284)))
(assert (forall ((x_55301 Nat_579) (y_2284 Nat_579) (r_413 Nat_579))
	(=> (minus_361 r_413 x_55301 y_2284)
	    (minus_361 (S_468 r_413) (S_468 x_55301) y_2284))))
(assert (forall ((y_2284 Nat_579))
	(le_340 Z_2048 y_2284)))
(assert (forall ((x_55301 Nat_579) (y_2284 Nat_579))
	(=> (le_340 x_55301 y_2284)
	    (le_340 (S_468 x_55301) (S_468 y_2284)))))
(assert (forall ((y_2284 Nat_579))
	(ge_340 y_2284 Z_2048)))
(assert (forall ((x_55301 Nat_579) (y_2284 Nat_579))
	(=> (ge_340 x_55301 y_2284)
	    (ge_340 (S_468 x_55301) (S_468 y_2284)))))
(assert (forall ((y_2284 Nat_579))
	(lt_360 Z_2048 (S_468 y_2284))))
(assert (forall ((x_55301 Nat_579) (y_2284 Nat_579))
	(=> (lt_360 x_55301 y_2284)
	    (lt_360 (S_468 x_55301) (S_468 y_2284)))))
(assert (forall ((y_2284 Nat_579))
	(gt_343 (S_468 y_2284) Z_2048)))
(assert (forall ((x_55301 Nat_579) (y_2284 Nat_579))
	(=> (gt_343 x_55301 y_2284)
	    (gt_343 (S_468 x_55301) (S_468 y_2284)))))
(assert (forall ((y_2284 Nat_579))
	(mult_340 Z_2048 Z_2048 y_2284)))
(assert (forall ((x_55301 Nat_579) (y_2284 Nat_579) (r_413 Nat_579) (z_2049 Nat_579))
	(=>	(and (mult_340 r_413 x_55301 y_2284)
			(add_366 z_2049 r_413 y_2284))
		(mult_340 z_2049 (S_468 x_55301) y_2284))))
(assert (forall ((x_55301 Nat_579) (y_2284 Nat_579))
	(=> (lt_360 x_55301 y_2284)
	    (div_340 Z_2048 x_55301 y_2284))))
(assert (forall ((x_55301 Nat_579) (y_2284 Nat_579) (r_413 Nat_579) (z_2049 Nat_579))
	(=>	(and (ge_340 x_55301 y_2284)
			(minus_361 z_2049 x_55301 y_2284)
			(div_340 r_413 z_2049 y_2284))
		(div_340 (S_468 r_413) x_55301 y_2284))))
(assert (forall ((x_55301 Nat_579) (y_2284 Nat_579))
	(=> (lt_360 x_55301 y_2284)
	    (mod_342 x_55301 x_55301 y_2284))))
(assert (forall ((x_55301 Nat_579) (y_2284 Nat_579) (r_413 Nat_579) (z_2049 Nat_579))
	(=>	(and (ge_340 x_55301 y_2284)
			(minus_361 z_2049 x_55301 y_2284)
			(mod_342 r_413 z_2049 y_2284))
		(mod_342 r_413 x_55301 y_2284))))
(declare-datatypes ((list_243 0)) (((nil_273 ) (cons_243 (head_486 Nat_579) (tail_486 list_243)))))
(declare-fun diseqlist_243 (list_243 list_243) Bool)
(declare-fun head_487 (Nat_579 list_243) Bool)
(declare-fun tail_487 (list_243 list_243) Bool)
(declare-fun isnil_273 (list_243) Bool)
(declare-fun iscons_243 (list_243) Bool)
(assert (forall ((x_55303 Nat_579) (x_55304 list_243))
	(head_487 x_55303 (cons_243 x_55303 x_55304))))
(assert (forall ((x_55303 Nat_579) (x_55304 list_243))
	(tail_487 x_55304 (cons_243 x_55303 x_55304))))
(assert (isnil_273 nil_273))
(assert (forall ((x_55306 Nat_579) (x_55307 list_243))
	(iscons_243 (cons_243 x_55306 x_55307))))
(assert (forall ((x_55308 Nat_579) (x_55309 list_243))
	(diseqlist_243 nil_273 (cons_243 x_55308 x_55309))))
(assert (forall ((x_55310 Nat_579) (x_55311 list_243))
	(diseqlist_243 (cons_243 x_55310 x_55311) nil_273)))
(assert (forall ((x_55312 Nat_579) (x_55313 list_243) (x_55314 Nat_579) (x_55315 list_243))
	(=> (diseqNat_579 x_55312 x_55314)
	    (diseqlist_243 (cons_243 x_55312 x_55313) (cons_243 x_55314 x_55315)))))
(assert (forall ((x_55312 Nat_579) (x_55313 list_243) (x_55314 Nat_579) (x_55315 list_243))
	(=> (diseqlist_243 x_55313 x_55315)
	    (diseqlist_243 (cons_243 x_55312 x_55313) (cons_243 x_55314 x_55315)))))
(declare-fun x_55287 (list_243 list_243 list_243) Bool)
(assert (forall ((x_55292 list_243) (z_2047 Nat_579) (xs_654 list_243) (y_2282 list_243))
	(=> (x_55287 x_55292 xs_654 y_2282)
	    (x_55287 (cons_243 z_2047 x_55292) (cons_243 z_2047 xs_654) y_2282))))
(assert (forall ((x_55293 list_243))
	(x_55287 x_55293 nil_273 x_55293)))
(declare-fun rev_10 (list_243 list_243) Bool)
(assert (forall ((x_55294 list_243) (x_55295 list_243) (y_2283 Nat_579) (xs_655 list_243))
	(=>	(and (rev_10 x_55295 xs_655)
			(x_55287 x_55294 x_55295 (cons_243 y_2283 nil_273)))
		(rev_10 x_55294 (cons_243 y_2283 xs_655)))))
(assert (rev_10 nil_273 nil_273))
(assert (forall ((x_55298 list_243) (x_55299 list_243) (x_55300 list_243) (x_55290 list_243))
	(=>	(and true
			(diseqlist_243 x_55300 x_55290)
			(rev_10 x_55298 x_55290)
			(x_55287 x_55299 x_55298 nil_273)
			(rev_10 x_55300 x_55299))
		false)))
(check-sat)
